Solver command line: ['/usr/local/bin/gurobi.sh']

Set parameter WLSAccessID
Set parameter WLSSecret
Set parameter LicenseID to value 2606900
Academic license 2606900 - for non-commercial use only - registered to so___@htwk-leipzig.de
Read LP format model from file /var/folders/jf/5sh4zzv94dxbcz8g7tg2jq5h0000gn/T/tmpdne16ky8.pyomo.lp
Reading time = 2.09 seconds
objective: 967944 rows, 875999 columns, 2185566 nonzeros
Set parameter MIPGap to value 0.02
Gurobi Optimizer version 12.0.1 build v12.0.1rc0 (mac64[rosetta2] - Darwin 24.4.0 24E263)

CPU model: Apple M3
Thread count: 8 physical cores, 8 logical processors, using up to 8 threads

Non-default parameters:
MIPGap  0.02

Academic license 2606900 - for non-commercial use only - registered to so___@htwk-leipzig.de
Optimize a model with 967944 rows, 875999 columns and 2185566 nonzeros
Model fingerprint: 0xf126f01c
Model has 8759 quadratic constraints
Variable types: 753360 continuous, 122639 integer (105120 binary)
Coefficient statistics:
  Matrix range     [8e-03, 2e+02]
  QMatrix range    [1e+00, 1e+00]
  Objective range  [1e-02, 5e+02]
  Bounds range     [1e+00, 3e+00]
  RHS range        [8e-05, 1e+04]
Presolve removed 775347 rows and 657117 columns
Presolve time: 0.45s
Presolved: 192597 rows, 218882 columns, 609966 nonzeros
Variable types: 144670 continuous, 74212 integer (65452 binary)
Performing another presolve...
Presolve removed 70171 rows and 70170 columns
Presolve time: 4.87s
Deterministic concurrent LP optimizer: primal and dual simplex
Showing primal log only...


Root simplex log...

Iteration    Objective       Primal Inf.    Dual Inf.      Time
       0    9.7744040e+07   6.566496e+06   6.650805e+13      6s
Concurrent spin time: 0.01s

Solved with dual simplex

Root simplex log...

Iteration    Objective       Primal Inf.    Dual Inf.      Time
   74346    9.0175148e+07   0.000000e+00   0.000000e+00      9s

Root relaxation: objective 9.017515e+07, 74346 iterations, 2.77 seconds (4.20 work units)
Total elapsed time = 8.88s (DegenMoves)

    Nodes    |    Current Node    |     Objective Bounds      |     Work
 Expl Unexpl |  Obj  Depth IntInf | Incumbent    BestBd   Gap | It/Node Time

     0     0 9.0175e+07    0  239          - 9.0175e+07      -     -    9s
H    0     0                    9.018938e+07 9.0175e+07  0.02%     -   10s

Explored 1 nodes (79458 simplex iterations) in 10.22 seconds (18.02 work units)
Thread count was 8 (of 8 available processors)

Solution count 1: 9.01894e+07 

Optimal solution found (tolerance 2.00e-02)
Best objective 9.018938053734e+07, best bound 9.017514779314e+07, gap 0.0158%

